100
150
100
97
96
94
94
93
92
92
91
90
90
87
86
86
86
84
84
82
81
80
77
76
76
76
75
74
74
73
73
72
72
71
71
70
70
70
69
68
68
67
66
66
65
64
63
62
62
60
59
59
59
59
57
52
52
50
49
48
47
46
44
42
41
38
36
36
34
33
30
28
27
25
25
24
22
20
20
17
16
16
15
15
15
13
13
12
11
11
10
10
10
10
9
8
8
6
5
5
4
3
